c Staircase at least one
p cnf 19 26
-1 11 0
-10 -19 0
-2 12 0
-11 12 0
-12 -11 0
-3 13 0
-12 13 0
-13 -12 0
-4 14 0
-13 14 0
-14 -13 0
-5 15 0
-14 15 0
-15 -14 0
-6 16 0
-15 16 0
-16 -15 0
-7 17 0
-16 17 0
-17 -16 0
-8 18 0
-17 18 0
-18 -17 0
-9 19 0
-18 19 0
-19 -18 0
